c Resource 2 (Action Points) file for NavMesh graph
p sp 447 876
a 1 5 30
a 2 7 50
a 2 3 50
a 3 2 100
a 3 4 100
a 4 3 150
a 4 6 150
a 5 1 100
a 5 6 100
a 6 4 100
a 6 5 100
a 6 124 100
a 7 2 150
a 8 56 150
a 9 14 100
a 9 11 100
a 10 11 150
a 10 12 150
a 11 9 150
a 11 10 150
a 12 10 30
a 13 71 100
a 13 14 100
a 14 9 50
a 14 13 50
a 15 16 30
a 16 15 100
a 17 102 100
a 17 18 100
a 18 17 30
a 18 19 30
a 19 18 30
a 19 21 30
a 20 21 100
a 20 22 100
a 21 19 150
a 21 20 150
a 22 20 100
a 23 67 100
a 24 27 100
a 25 33 30
a 25 36 30
a 26 130 150
a 26 32 150
a 27 24 150
a 27 30 150
a 28 50 100
a 28 31 100
a 29 134 50
a 29 38 50
a 30 27 150
a 30 37 150
a 31 28 150
a 31 41 150
a 32 26 50
a 32 39 50
a 33 46 30
a 33 25 30
a 33 35 30
a 33 47 30
a 33 49 30
a 33 43 30
a 34 38 50
a 34 35 50
a 35 42 50
a 35 34 50
a 35 33 50
a 36 206 100
a 36 25 100
a 37 30 30
a 37 41 30
a 38 29 100
a 38 39 100
a 38 34 100
a 39 32 30
a 39 38 30
a 40 43 50
a 41 31 100
a 41 37 100
a 41 49 100
a 42 35 150
a 43 40 100
a 43 48 100
a 43 33 100
a 44 46 30
a 45 47 30
a 46 44 100
a 46 33 100
a 47 45 100
a 47 33 100
a 48 104 150
a 48 43 150
a 49 41 100
a 49 33 100
a 50 28 150
a 51 62 150
a 53 73 150
a 53 57 150
a 54 72 30
a 54 58 30
a 55 131 100
a 55 57 100
a 56 8 30
a 56 58 30
a 57 53 150
a 57 58 150
a 57 55 150
a 58 54 30
a 58 57 30
a 58 56 30
a 59 83 150
a 59 64 150
a 60 82 30
a 60 63 30
a 61 133 100
a 61 64 100
a 62 51 30
a 62 63 30
a 63 60 30
a 63 64 30
a 63 62 30
a 64 59 150
a 64 63 150
a 64 61 150
a 65 132 100
a 65 70 100
a 66 81 100
a 66 70 100
a 67 23 150
a 67 69 150
a 68 79 150
a 68 69 150
a 69 67 100
a 69 68 100
a 69 70 100
a 70 65 100
a 70 66 100
a 70 69 100
a 71 84 50
a 71 13 50
a 72 54 150
a 73 53 30
a 73 75 30
a 74 76 100
a 75 73 30
a 75 76 30
a 76 74 150
a 76 75 150
a 77 78 30
a 78 77 150
a 78 80 150
a 79 68 100
a 79 80 100
a 80 79 100
a 80 78 100
a 81 66 100
a 82 60 150
a 83 59 30
a 84 71 100
a 84 86 100
a 85 163 50
a 85 96 50
a 86 84 30
a 86 89 30
a 87 96 150
a 87 91 150
a 88 93 100
a 89 86 50
a 89 92 50
a 90 95 100
a 91 87 50
a 91 98 50
a 91 92 50
a 91 94 50
a 91 97 50
a 91 99 50
a 92 89 150
a 92 91 150
a 93 88 30
a 93 94 30
a 94 93 100
a 94 91 100
a 95 90 100
a 95 99 100
a 96 85 150
a 96 87 150
a 97 122 100
a 97 91 100
a 98 116 30
a 98 91 30
a 99 95 150
a 99 91 150
a 100 113 30
a 101 191 100
a 101 103 100
a 102 17 30
a 102 109 30
a 103 101 30
a 103 108 30
a 104 48 100
a 104 114 100
a 105 116 150
a 105 114 150
a 106 111 100
a 107 110 50
a 108 103 50
a 108 115 50
a 109 102 100
a 109 114 100
a 110 107 30
a 110 113 30
a 111 106 100
a 111 112 100
a 112 111 100
a 112 114 100
a 113 110 100
a 113 100 100
a 113 114 100
a 114 104 100
a 114 112 100
a 114 109 100
a 114 105 100
a 114 115 100
a 114 113 100
a 115 108 150
a 115 114 150
a 116 98 100
a 116 105 100
a 117 122 30
a 117 127 30
a 118 127 100
a 119 120 30
a 120 119 100
a 120 127 100
a 121 190 150
a 121 128 150
a 122 97 150
a 122 117 150
a 123 129 100
a 123 126 100
a 124 6 150
a 124 129 150
a 125 128 100
a 125 127 100
a 126 123 150
a 126 127 150
a 127 125 150
a 127 118 150
a 127 117 150
a 127 120 150
a 127 126 150
a 128 121 50
a 128 125 50
a 129 124 150
a 129 123 150
a 130 26 50
a 131 55 30
a 132 65 150
a 133 61 30
a 134 29 100
a 135 148 50
a 136 138 50
a 137 139 100
a 138 136 30
a 138 140 30
a 139 141 50
a 139 137 50
a 140 138 150
a 140 142 150
a 141 142 100
a 141 139 100
a 142 140 100
a 142 141 100
a 143 159 30
a 144 154 50
a 145 165 50
a 145 150 50
a 146 164 100
a 146 149 100
a 147 238 30
a 147 150 30
a 148 135 100
a 148 149 100
a 149 146 100
a 149 150 100
a 149 148 100
a 150 145 50
a 150 149 50
a 150 147 50
a 151 189 50
a 151 156 50
a 152 188 100
a 152 155 100
a 153 246 30
a 153 156 30
a 154 144 100
a 154 155 100
a 155 152 100
a 155 156 100
a 155 154 100
a 156 151 50
a 156 155 50
a 156 153 50
a 157 242 150
a 157 162 150
a 158 187 150
a 158 162 150
a 159 143 50
a 159 161 50
a 160 183 50
a 160 161 50
a 161 159 30
a 161 160 30
a 161 162 30
a 162 157 30
a 162 158 30
a 162 161 30
a 163 169 100
a 163 85 100
a 164 146 50
a 165 145 100
a 165 167 100
a 166 168 30
a 167 165 100
a 167 168 100
a 168 166 50
a 168 167 50
a 169 163 150
a 169 171 150
a 170 260 100
a 170 172 100
a 171 169 50
a 171 179 50
a 172 170 50
a 172 180 50
a 173 178 30
a 174 181 30
a 174 175 30
a 175 179 100
a 175 176 100
a 175 182 100
a 175 180 100
a 175 174 100
a 175 177 100
a 176 175 100
a 177 175 30
a 178 173 50
a 178 182 50
a 179 171 30
a 179 175 30
a 180 172 150
a 180 175 150
a 181 255 50
a 181 174 50
a 182 178 100
a 182 175 100
a 183 160 150
a 183 184 150
a 184 183 30
a 184 186 30
a 185 186 100
a 186 184 50
a 186 185 50
a 187 158 30
a 188 152 50
a 189 151 100
a 190 216 100
a 190 121 100
a 191 222 150
a 191 101 150
a 192 261 150
a 192 194 150
a 193 224 100
a 193 195 100
a 194 192 30
a 194 201 30
a 195 193 30
a 195 200 30
a 196 204 150
a 196 202 150
a 197 203 100
a 198 204 100
a 199 287 30
a 199 202 30
a 200 195 100
a 200 202 100
a 201 194 150
a 201 202 150
a 202 206 50
a 202 205 50
a 202 200 50
a 202 199 50
a 202 201 50
a 202 196 50
a 203 197 150
a 203 205 150
a 204 198 100
a 204 196 100
a 205 203 150
a 205 202 150
a 206 36 100
a 206 202 100
a 207 260 150
a 207 208 150
a 208 207 150
a 208 211 150
a 209 220 100
a 209 219 100
a 210 212 100
a 211 208 100
a 211 217 100
a 212 210 100
a 212 213 100
a 213 212 100
a 213 218 100
a 214 221 30
a 214 218 30
a 215 282 50
a 215 221 50
a 216 190 50
a 216 220 50
a 217 211 30
a 217 218 30
a 218 213 50
a 218 219 50
a 218 214 50
a 218 217 50
a 219 209 50
a 219 218 50
a 220 216 50
a 220 209 50
a 221 215 100
a 221 214 100
a 222 191 100
a 222 223 100
a 223 222 100
a 223 230 100
a 224 193 100
a 224 225 100
a 225 224 100
a 225 232 100
a 226 227 100
a 226 228 100
a 227 226 100
a 228 232 150
a 228 226 150
a 228 229 150
a 228 231 150
a 228 233 150
a 229 228 100
a 230 223 100
a 230 231 100
a 231 230 150
a 231 228 150
a 232 225 100
a 232 228 100
a 233 254 30
a 233 228 30
a 234 250 50
a 234 237 50
a 235 236 100
a 235 237 100
a 236 235 100
a 237 235 100
a 237 234 100
a 238 147 100
a 238 241 100
a 239 240 30
a 239 241 30
a 240 239 30
a 241 238 50
a 241 239 50
a 242 157 50
a 242 243 50
a 243 242 30
a 243 245 30
a 244 245 150
a 245 243 150
a 245 244 150
a 246 153 100
a 246 249 100
a 247 248 30
a 247 249 30
a 248 247 30
a 249 246 50
a 249 247 50
a 250 234 150
a 250 252 150
a 251 261 150
a 251 252 150
a 252 250 50
a 252 251 50
a 253 334 50
a 253 257 50
a 254 233 30
a 254 259 30
a 255 181 150
a 255 256 150
a 256 255 100
a 256 259 100
a 257 253 100
a 257 259 100
a 258 320 30
a 258 259 30
a 259 257 150
a 259 254 150
a 259 256 150
a 259 258 150
a 260 170 100
a 260 207 100
a 261 251 100
a 261 192 100
a 262 265 150
a 263 269 50
a 263 265 50
a 264 266 30
a 265 262 30
a 265 263 30
a 266 264 150
a 266 268 150
a 267 269 100
a 267 268 100
a 268 266 100
a 268 267 100
a 269 267 100
a 269 263 100
a 270 273 150
a 271 277 50
a 271 273 50
a 272 274 30
a 273 270 30
a 273 271 30
a 274 272 150
a 274 276 150
a 275 277 100
a 275 276 100
a 276 274 100
a 276 275 100
a 277 275 100
a 277 271 100
a 278 281 150
a 279 281 50
a 279 280 50
a 280 279 100
a 281 278 30
a 281 279 30
a 282 307 150
a 282 215 150
a 283 284 150
a 283 291 150
a 284 336 100
a 284 283 100
a 285 335 150
a 285 294 150
a 286 287 150
a 286 295 150
a 286 292 150
a 286 288 150
a 286 296 150
a 286 291 150
a 287 199 150
a 287 286 150
a 288 411 100
a 288 286 100
a 289 293 50
a 290 292 100
a 291 283 30
a 291 286 30
a 292 290 50
a 292 286 50
a 293 289 30
a 293 296 30
a 294 285 30
a 294 295 30
a 295 294 30
a 295 286 30
a 296 293 150
a 296 286 150
a 297 298 150
a 297 302 150
a 298 311 100
a 298 297 100
a 299 307 100
a 299 300 100
a 300 299 30
a 300 309 30
a 301 303 50
a 302 297 30
a 302 308 30
a 303 301 30
a 303 304 30
a 304 303 50
a 304 308 50
a 305 310 50
a 305 308 50
a 306 404 100
a 306 310 100
a 307 282 100
a 307 299 100
a 308 304 100
a 308 302 100
a 308 309 100
a 308 305 100
a 309 300 100
a 309 308 100
a 310 306 100
a 310 305 100
a 311 298 50
a 311 317 50
a 312 381 150
a 312 318 150
a 313 317 150
a 313 315 150
a 314 319 150
a 315 319 150
a 315 316 150
a 315 318 150
a 315 320 150
a 315 313 150
a 316 315 50
a 317 311 100
a 317 313 100
a 318 312 50
a 318 315 50
a 319 314 30
a 319 315 30
a 320 258 30
a 320 315 30
a 321 323 100
a 321 332 100
a 322 422 50
a 322 325 50
a 323 335 50
a 323 321 50
a 324 333 100
a 324 328 100
a 325 322 150
a 325 333 150
a 326 332 150
a 326 328 150
a 327 331 150
a 328 329 30
a 328 326 30
a 328 334 30
a 328 330 30
a 328 324 30
a 328 331 30
a 329 328 100
a 330 328 100
a 331 327 30
a 331 328 30
a 332 321 30
a 332 326 30
a 333 325 50
a 333 324 50
a 334 253 100
a 334 328 100
a 335 285 100
a 335 323 100
a 336 284 100
a 336 338 100
a 337 339 50
a 337 338 50
a 338 337 150
a 338 336 150
a 339 337 100
a 339 342 100
a 340 342 30
a 340 341 30
a 341 340 150
a 342 339 50
a 342 340 50
a 343 366 100
a 343 346 100
a 344 345 30
a 344 346 30
a 345 344 50
a 346 344 150
a 346 343 150
a 347 349 50
a 348 350 100
a 349 347 30
a 349 351 30
a 350 352 50
a 350 348 50
a 351 349 150
a 351 353 150
a 352 353 100
a 352 350 100
a 353 351 100
a 353 352 100
a 354 355 30
a 355 354 150
a 355 357 150
a 356 376 100
a 356 357 100
a 357 356 100
a 357 355 100
a 358 371 100
a 358 361 100
a 359 360 30
a 359 361 30
a 360 359 50
a 361 359 150
a 361 358 150
a 362 393 150
a 362 367 150
a 363 392 30
a 363 365 30
a 364 445 100
a 364 367 100
a 365 363 30
a 365 367 30
a 365 366 30
a 366 343 50
a 366 365 50
a 367 362 150
a 367 365 150
a 367 364 150
a 368 403 150
a 368 373 150
a 369 402 30
a 369 372 30
a 370 447 100
a 370 373 100
a 371 358 30
a 371 372 30
a 372 369 30
a 372 373 30
a 372 371 30
a 373 368 150
a 373 372 150
a 373 370 150
a 374 446 100
a 374 379 100
a 375 401 100
a 375 379 100
a 376 356 150
a 376 378 150
a 377 399 150
a 377 378 150
a 378 376 100
a 378 377 100
a 378 379 100
a 379 374 100
a 379 375 100
a 379 378 100
a 380 387 50
a 380 381 50
a 381 312 100
a 381 380 100
a 382 385 50
a 382 390 50
a 383 384 100
a 384 383 100
a 384 390 100
a 385 382 50
a 386 389 50
a 387 380 150
a 387 390 150
a 388 430 30
a 388 390 30
a 389 386 50
a 389 390 50
a 390 382 100
a 390 388 100
a 390 387 100
a 390 389 100
a 390 391 100
a 390 384 100
a 391 441 100
a 391 390 100
a 392 363 150
a 393 362 30
a 393 395 30
a 394 396 100
a 395 393 30
a 395 396 30
a 396 394 150
a 396 395 150
a 397 398 30
a 398 397 150
a 398 400 150
a 399 377 100
a 399 400 100
a 400 399 100
a 400 398 100
a 401 375 100
a 402 369 150
a 403 368 30
a 404 443 50
a 404 306 50
a 405 421 100
a 405 411 100
a 406 444 150
a 406 408 150
a 407 415 100
a 408 406 50
a 408 414 50
a 409 410 30
a 410 409 30
a 410 421 30
a 411 288 150
a 411 405 150
a 412 420 150
a 413 416 50
a 414 408 30
a 414 420 30
a 415 407 150
a 415 420 150
a 416 413 150
a 416 421 150
a 417 418 30
a 418 417 100
a 418 421 100
a 419 432 50
a 419 421 50
a 420 415 50
a 420 414 50
a 420 421 50
a 420 412 50
a 421 419 100
a 421 410 100
a 421 420 100
a 421 418 100
a 421 405 100
a 421 416 100
a 422 322 30
a 422 427 30
a 423 434 100
a 424 425 100
a 425 424 100
a 425 433 100
a 426 428 100
a 427 422 100
a 427 433 100
a 428 426 100
a 428 429 100
a 429 428 100
a 429 433 100
a 430 388 100
a 430 431 100
a 431 430 150
a 431 433 150
a 432 419 100
a 432 433 100
a 433 425 150
a 433 432 150
a 433 429 150
a 433 427 150
a 433 431 150
a 433 434 150
a 434 423 100
a 434 433 100
a 435 439 100
a 436 440 150
a 437 438 30
a 438 437 100
a 438 442 100
a 439 435 100
a 439 442 100
a 440 436 30
a 440 442 30
a 441 391 150
a 441 442 150
a 442 443 150
a 442 440 150
a 442 439 150
a 442 441 150
a 442 438 150
a 443 404 150
a 443 442 150
a 444 406 50
a 445 364 30
a 446 374 150
a 447 370 30
